data/solutions/recovery/degenerate/moderate/flexible/degenerate_moderate_instance36/28.sol
Elapsed time: 100.05
Upper bound: 1410442593.0
Planning weighted value: 37413346363.0
C[0]=1410442593.0
C[1]=1410090863.0
C[2]=1409826450.0
C[3]=1409643108.0
C[4]=0.0
y[0]=1
y[1]=3
y[2]=1
y[3]=3
y[4]=3
y[5]=0
y[6]=3
y[7]=1
y[8]=0
y[9]=3
y[10]=3
y[11]=3
y[12]=0
y[13]=2
y[14]=1
y[15]=3
y[16]=1
y[17]=1
y[18]=2
y[19]=1
y[20]=3
y[21]=0
y[22]=3
y[23]=3
y[24]=1
y[25]=2
y[26]=3
y[27]=0
y[28]=0
y[29]=3
y[30]=2
y[31]=1
y[32]=0
y[33]=2
y[34]=0
y[35]=1
y[36]=2
y[37]=3
y[38]=2
y[39]=1
y[40]=0
y[41]=3
y[42]=3
y[43]=0
y[44]=2
y[45]=0
