data/solutions/recovery/degenerate/moderate/flexible/degenerate_moderate_instance36/28.log

Log started (V12.6.3.0) Sat Apr 21 11:25:38 2018

New value for default parallel thread count: 1

Problem '/tmp/tmpnfU8kr.pyomo.lp' read.
Read time = 0.00 sec. (0.11 ticks)

Problem name         : /tmp/tmpnfU8kr.pyomo.lp
Objective sense      : Minimize
Variables            :     237  [Nneg: 1,  Binary: 230,  General Integer: 6]
Objective nonzeros   :       1
Linear constraints   :     104  [Less: 51,  Equal: 53]
  Nonzeros           :    7698
  RHS nonzeros       :      93

Variables            : Min LB: 0.000000         Max UB: 1.000000       
Objective nonzeros   : Min   : 1.000000         Max   : 1.000000       
Linear constraints   :
  Nonzeros           : Min   : 1.000000         Max   : 2.657465e+08   
  RHS nonzeros       : Min   : 1.000000         Max   : 5.000000       
Tried aggregator 1 time.
MIP Presolve eliminated 49 rows and 48 columns.
Reduced MIP has 55 rows, 189 columns, and 497 nonzeros.
Reduced MIP has 184 binaries, 5 generals, 0 SOSs, and 0 indicators.
Presolve time = 0.00 sec. (1.40 ticks)
Found incumbent of value 2.9402426e+09 after 0.00 sec. (1.65 ticks)
Probing time = 0.00 sec. (0.37 ticks)
Tried aggregator 1 time.
Reduced MIP has 55 rows, 189 columns, and 497 nonzeros.
Reduced MIP has 184 binaries, 5 generals, 0 SOSs, and 0 indicators.
Presolve time = 0.00 sec. (0.31 ticks)
Probing time = 0.00 sec. (0.37 ticks)
Clique table members: 46.
MIP emphasis: balance optimality and feasibility.
MIP search method: dynamic search.
Parallel mode: none, using 1 thread.
Root relaxation solution time = 0.00 sec. (0.56 ticks)

        Nodes                                         Cuts/
   Node  Left     Objective  IInf  Best Integer    Best Bound    ItCnt     Gap

*     0+    0                       2.94024e+09        0.0000           100.00%
      0     0   1.41000e+09    13   2.94024e+09   1.41000e+09      102   52.04%
*     0+    0                       1.44776e+09   1.41000e+09             2.61%
*     0+    0                       1.44413e+09   1.41000e+09             2.36%
      0     2   1.41000e+09    13   1.44413e+09   1.41000e+09      102    2.36%
Elapsed time = 0.01 sec. (6.51 ticks, tree = 0.01 MB, solutions = 3)
*    30+   28                       1.42264e+09   1.41000e+09             0.89%
*   130+  109                       1.42263e+09   1.41000e+09             0.89%
*   300   223      integral     0   1.42148e+09   1.41000e+09     1159    0.81%
*   301   221      integral     0   1.42107e+09   1.41000e+09     1160    0.78%
*   401+  277                       1.41695e+09   1.41000e+09             0.49%
*   401+  277                       1.41681e+09   1.41000e+09             0.48%
*   401+  275                       1.41399e+09   1.41000e+09             0.28%
*   401+  275                       1.41392e+09   1.41000e+09             0.28%
*   401+  270                       1.41224e+09   1.41000e+09             0.16%
*  1000+  598                       1.41175e+09   1.41000e+09             0.12%
*  1100+  626                       1.41096e+09   1.41000e+09             0.07%
*  1490+  562                       1.41047e+09   1.41000e+09             0.03%
   1835    56   1.41000e+09     6   1.41047e+09   1.41000e+09     6278    0.03%
   1836    57   1.41000e+09     6   1.41047e+09   1.41000e+09     6279    0.03%
   1837    58   1.41000e+09     6   1.41047e+09   1.41000e+09     6280    0.03%
   1838    59   1.41000e+09     6   1.41047e+09   1.41000e+09     6283    0.03%
   1839    58        cutoff         1.41047e+09   1.41000e+09     6292    0.03%
   1840    57        cutoff         1.41047e+09   1.41000e+09     6301    0.03%
   1841    56    infeasible         1.41047e+09   1.41000e+09     6301    0.03%
   1842    55        cutoff         1.41047e+09   1.41000e+09     6311    0.03%
   1843    54        cutoff         1.41047e+09   1.41000e+09     6315    0.03%
   4948   932        cutoff         1.41047e+09   1.41000e+09    13816    0.03%
Elapsed time = 1.13 sec. (960.27 ticks, tree = 0.28 MB, solutions = 15)
  12002  2550   1.41000e+09     6   1.41047e+09   1.41000e+09    39202    0.03%
  12003  2551   1.41000e+09     7   1.41047e+09   1.41000e+09    39204    0.03%
  12004  2552   1.41000e+09     8   1.41047e+09   1.41000e+09    39205    0.03%
  12005  2553   1.41000e+09     8   1.41047e+09   1.41000e+09    39208    0.03%
  12006  2554   1.41000e+09     5   1.41047e+09   1.41000e+09    39210    0.03%
  12007  2555   1.41000e+09     8   1.41047e+09   1.41000e+09    39213    0.03%
  12008  2556   1.41000e+09     8   1.41047e+09   1.41000e+09    39214    0.03%
  12009  2555    infeasible         1.41047e+09   1.41000e+09    39214    0.03%
  12010  2556   1.41000e+09     8   1.41047e+09   1.41000e+09    39215    0.03%
  12011  2557   1.41000e+09     8   1.41047e+09   1.41000e+09    39216    0.03%
Elapsed time = 2.18 sec. (1914.72 ticks, tree = 0.80 MB, solutions = 15)
  19384  3812   1.41000e+09     8   1.41047e+09   1.41000e+09    63749    0.03%
  19385  3811    infeasible         1.41047e+09   1.41000e+09    63754    0.03%
  19386  3810        cutoff         1.41047e+09   1.41000e+09    63760    0.03%
  19387  3811   1.41000e+09     8   1.41047e+09   1.41000e+09    63762    0.03%
  19388  3812   1.41000e+09     8   1.41047e+09   1.41000e+09    63764    0.03%
  19389  3813   1.41000e+09     8   1.41047e+09   1.41000e+09    63765    0.03%
  19390  3812        cutoff         1.41047e+09   1.41000e+09    63773    0.03%
  19391  3813   1.41000e+09     8   1.41047e+09   1.41000e+09    63774    0.03%
  19392  3814   1.41000e+09     8   1.41047e+09   1.41000e+09    63775    0.03%
  19393  3815   1.41000e+09     8   1.41047e+09   1.41000e+09    63776    0.03%
Elapsed time = 3.25 sec. (2869.38 ticks, tree = 1.16 MB, solutions = 15)
  27058  5120   1.41000e+09     8   1.41047e+09   1.41000e+09    90665    0.03%
  27059  5121   1.41000e+09     8   1.41047e+09   1.41000e+09    90667    0.03%
  27060  5122   1.41000e+09     7   1.41047e+09   1.41000e+09    90668    0.03%
  27061  5123   1.41000e+09     6   1.41047e+09   1.41000e+09    90670    0.03%
  27062  5124   1.41000e+09     6   1.41047e+09   1.41000e+09    90671    0.03%
  27063  5125   1.41000e+09     6   1.41047e+09   1.41000e+09    90673    0.03%
  27064  5124        cutoff         1.41047e+09   1.41000e+09    90684    0.03%
  27065  5123    infeasible         1.41047e+09   1.41000e+09    90684    0.03%
  27066  5122        cutoff         1.41047e+09   1.41000e+09    90693    0.03%
  27067  5123   1.41000e+09     8   1.41047e+09   1.41000e+09    90696    0.03%
Elapsed time = 4.31 sec. (3824.95 ticks, tree = 1.62 MB, solutions = 15)
  33948  5182   1.41000e+09     6   1.41047e+09   1.41000e+09   120617    0.03%
  33949  5183   1.41000e+09     5   1.41047e+09   1.41000e+09   120619    0.03%
  33950  5184   1.41000e+09     6   1.41047e+09   1.41000e+09   120620    0.03%
  33951  5185   1.41000e+09     6   1.41047e+09   1.41000e+09   120623    0.03%
  33952  5186   1.41000e+09     6   1.41047e+09   1.41000e+09   120628    0.03%
  33953  5187   1.41000e+09     8   1.41047e+09   1.41000e+09   120632    0.03%
  33954  5188   1.41000e+09     8   1.41047e+09   1.41000e+09   120633    0.03%
  33955  5189   1.41000e+09     8   1.41047e+09   1.41000e+09   120634    0.03%
  33956  5188        cutoff         1.41047e+09   1.41000e+09   120635    0.03%
  33957  5187    infeasible         1.41047e+09   1.41000e+09   120635    0.03%
Elapsed time = 5.36 sec. (4779.57 ticks, tree = 1.63 MB, solutions = 15)
  41315  5056   1.41000e+09     8   1.41047e+09   1.41000e+09   149985    0.03%
  41316  5057   1.41000e+09     6   1.41047e+09   1.41000e+09   149986    0.03%
  41317  5058   1.41000e+09     7   1.41047e+09   1.41000e+09   149990    0.03%
  41318  5059   1.41000e+09     5   1.41047e+09   1.41000e+09   150001    0.03%
  41319  5058    infeasible         1.41047e+09   1.41000e+09   150001    0.03%
  41320  5057    infeasible         1.41047e+09   1.41000e+09   150001    0.03%
  41321  5056        cutoff         1.41047e+09   1.41000e+09   150008    0.03%
  41322  5055        cutoff         1.41047e+09   1.41000e+09   150017    0.03%
  41323  5054        cutoff         1.41047e+09   1.41000e+09   150024    0.03%
  41324  5053        cutoff         1.41047e+09   1.41000e+09   150031    0.03%
Elapsed time = 6.41 sec. (5734.70 ticks, tree = 1.60 MB, solutions = 15)
  49408  4736   1.41000e+09    10   1.41047e+09   1.41000e+09   180992    0.03%
  49409  4737   1.41000e+09     8   1.41047e+09   1.41000e+09   180996    0.03%
  49410  4738   1.41000e+09     8   1.41047e+09   1.41000e+09   180997    0.03%
  49411  4739   1.41012e+09    13   1.41047e+09   1.41000e+09   181006    0.03%
  49412  4740   1.41012e+09    13   1.41047e+09   1.41000e+09   181007    0.03%
  49413  4740   1.41012e+09    12   1.41047e+09   1.41000e+09   181009    0.03%
  49414  4740   1.41012e+09    12   1.41047e+09   1.41000e+09   181012    0.03%
  49415  4741   1.41012e+09    13   1.41047e+09   1.41000e+09   181018    0.03%
  49416  4741   1.41024e+09    13   1.41047e+09   1.41000e+09   181022    0.03%
  49417  4742   1.41027e+09    13   1.41047e+09   1.41000e+09   181024    0.03%
Elapsed time = 7.47 sec. (6689.38 ticks, tree = 1.52 MB, solutions = 15)
  57733  4647   1.41000e+09     8   1.41047e+09   1.41000e+09   214233    0.03%
  57734  4648   1.41000e+09     6   1.41047e+09   1.41000e+09   214236    0.03%
  57735  4647        cutoff         1.41047e+09   1.41000e+09   214239    0.03%
  57736  4648   1.41000e+09     6   1.41047e+09   1.41000e+09   214241    0.03%
  57737  4649   1.41000e+09     5   1.41047e+09   1.41000e+09   214244    0.03%
  57738  4650   1.41000e+09     5   1.41047e+09   1.41000e+09   214246    0.03%
  57739  4649        cutoff         1.41047e+09   1.41000e+09   214253    0.03%
  57740  4648        cutoff         1.41047e+09   1.41000e+09   214257    0.03%
  57741  4647        cutoff         1.41047e+09   1.41000e+09   214280    0.03%
  57742  4646    infeasible         1.41047e+09   1.41000e+09   214280    0.03%
Elapsed time = 8.52 sec. (7644.51 ticks, tree = 1.49 MB, solutions = 15)
  65899  4365   1.41000e+09     8   1.41047e+09   1.41000e+09   245867    0.03%
  65900  4366   1.41000e+09     6   1.41047e+09   1.41000e+09   245868    0.03%
  65901  4367   1.41000e+09     6   1.41047e+09   1.41000e+09   245869    0.03%
  65902  4368   1.41000e+09     6   1.41047e+09   1.41000e+09   245870    0.03%
  65903  4369   1.41000e+09     6   1.41047e+09   1.41000e+09   245871    0.03%
  65904  4370   1.41000e+09     6   1.41047e+09   1.41000e+09   245872    0.03%
  65905  4371   1.41000e+09     6   1.41047e+09   1.41000e+09   245873    0.03%
  65906  4372   1.41000e+09     6   1.41047e+09   1.41000e+09   245874    0.03%
  65907  4373   1.41000e+09     8   1.41047e+09   1.41000e+09   245879    0.03%
  65908  4374   1.41000e+09     7   1.41047e+09   1.41000e+09   245883    0.03%
Elapsed time = 9.58 sec. (8598.74 ticks, tree = 1.43 MB, solutions = 15)
  73240  4179        cutoff         1.41047e+09   1.41000e+09   274917    0.03%
  73241  4178        cutoff         1.41047e+09   1.41000e+09   274923    0.03%
  73242  4177    infeasible         1.41047e+09   1.41000e+09   274923    0.03%
  73243  4176        cutoff         1.41047e+09   1.41000e+09   274929    0.03%
  73244  4175    infeasible         1.41047e+09   1.41000e+09   274932    0.03%
  73245  4174        cutoff         1.41047e+09   1.41000e+09   274943    0.03%
  73246  4173    infeasible         1.41047e+09   1.41000e+09   274950    0.03%
  73247  4172        cutoff         1.41047e+09   1.41000e+09   274956    0.03%
  73248  4171        cutoff         1.41047e+09   1.41000e+09   274960    0.03%
  97265  3355        cutoff         1.41047e+09   1.41000e+09   368990    0.03%
Elapsed time = 13.78 sec. (12413.48 ticks, tree = 1.16 MB, solutions = 15)
 128933  2918        cutoff         1.41047e+09   1.41000e+09   489990    0.03%
 128934  2917        cutoff         1.41047e+09   1.41000e+09   489998    0.03%
 128935  2916    infeasible         1.41047e+09   1.41000e+09   489998    0.03%
 128936  2915    infeasible         1.41047e+09   1.41000e+09   489998    0.03%
 128937  2914        cutoff         1.41047e+09   1.41000e+09   490006    0.03%
 128938  2913        cutoff         1.41047e+09   1.41000e+09   490021    0.03%
 128939  2912        cutoff         1.41047e+09   1.41000e+09   490026    0.03%
 128940  2911        cutoff         1.41047e+09   1.41000e+09   490031    0.03%
 128941  2910    infeasible         1.41047e+09   1.41000e+09   490082    0.03%
 128942  2909        cutoff         1.41047e+09   1.41000e+09   490088    0.03%
Elapsed time = 18.00 sec. (16229.71 ticks, tree = 1.03 MB, solutions = 15)
 159355  3459   1.41000e+09     6   1.41047e+09   1.41000e+09   606869    0.03%
 159356  3460   1.41000e+09     5   1.41047e+09   1.41000e+09   606874    0.03%
 159357  3459        cutoff         1.41047e+09   1.41000e+09   606892    0.03%
 159358  3460   1.41000e+09     6   1.41047e+09   1.41000e+09   606897    0.03%
 159359  3459    infeasible         1.41047e+09   1.41000e+09   606897    0.03%
 159360  3458        cutoff         1.41047e+09   1.41000e+09   606914    0.03%
 159361  3459   1.41000e+09     8   1.41047e+09   1.41000e+09   606918    0.03%
 159362  3460   1.41000e+09    11   1.41047e+09   1.41000e+09   606925    0.03%
 159363  3461   1.41000e+09     7   1.41047e+09   1.41000e+09   606927    0.03%
 159364  3460    infeasible         1.41047e+09   1.41000e+09   606931    0.03%
Elapsed time = 22.22 sec. (20046.30 ticks, tree = 1.19 MB, solutions = 15)
 185901  7122   1.41000e+09     6   1.41047e+09   1.41000e+09   707697    0.03%
 185902  7123   1.41000e+09     5   1.41047e+09   1.41000e+09   707700    0.03%
 185903  7122        cutoff         1.41047e+09   1.41000e+09   707704    0.03%
 185904  7121    infeasible         1.41047e+09   1.41000e+09   707722    0.03%
 185905  7120        cutoff         1.41047e+09   1.41000e+09   707727    0.03%
 185906  7121   1.41000e+09     6   1.41047e+09   1.41000e+09   707728    0.03%
 185907  7122   1.41000e+09     6   1.41047e+09   1.41000e+09   707730    0.03%
 185908  7123   1.41000e+09     5   1.41047e+09   1.41000e+09   707731    0.03%
 185909  7124   1.41000e+09     6   1.41047e+09   1.41000e+09   707732    0.03%
 185910  7125   1.41000e+09     5   1.41047e+09   1.41000e+09   707733    0.03%
Elapsed time = 26.43 sec. (23863.68 ticks, tree = 2.20 MB, solutions = 15)
 210648  7869   1.41000e+09     6   1.41047e+09   1.41000e+09   807149    0.03%
 210649  7870   1.41000e+09     6   1.41047e+09   1.41000e+09   807153    0.03%
 210650  7869    infeasible         1.41047e+09   1.41000e+09   807156    0.03%
 210651  7868    infeasible         1.41047e+09   1.41000e+09   807156    0.03%
 210652  7869   1.41000e+09     5   1.41047e+09   1.41000e+09   807159    0.03%
 210653  7868    infeasible         1.41047e+09   1.41000e+09   807159    0.03%
 210654  7869   1.41000e+09     6   1.41047e+09   1.41000e+09   807160    0.03%
 210655  7868    infeasible         1.41047e+09   1.41000e+09   807160    0.03%
 210656  7869   1.41000e+09     6   1.41047e+09   1.41000e+09   807162    0.03%
 210657  7870   1.41000e+09     6   1.41047e+09   1.41000e+09   807163    0.03%
Elapsed time = 30.63 sec. (27679.10 ticks, tree = 2.41 MB, solutions = 15)
*218899  7893      integral     0   1.41044e+09   1.41000e+09   838985    0.03%
 236441  8838   1.41000e+09     6   1.41044e+09   1.41000e+09   912725    0.03%
 236442  8839   1.41000e+09     6   1.41044e+09   1.41000e+09   912726    0.03%
 236443  8840   1.41000e+09     6   1.41044e+09   1.41000e+09   912727    0.03%
 236444  8841   1.41000e+09     6   1.41044e+09   1.41000e+09   912728    0.03%
 236445  8840        cutoff         1.41044e+09   1.41000e+09   912730    0.03%
 236446  8841   1.41000e+09     6   1.41044e+09   1.41000e+09   912731    0.03%
 236447  8841   1.41003e+09    11   1.41044e+09   1.41000e+09   912736    0.03%
 236448  8840    infeasible         1.41044e+09   1.41000e+09   912736    0.03%
 236449  8839        cutoff         1.41044e+09   1.41000e+09   912741    0.03%
 236450  8838    infeasible         1.41044e+09   1.41000e+09   912742    0.03%
Elapsed time = 34.87 sec. (31494.33 ticks, tree = 2.91 MB, solutions = 16)
 264093  9844        cutoff         1.41044e+09   1.41000e+09  1025042    0.03%
 264094  9845   1.41000e+09     6   1.41044e+09   1.41000e+09  1025044    0.03%
 264095  9844        cutoff         1.41044e+09   1.41000e+09  1025054    0.03%
 264096  9843    infeasible         1.41044e+09   1.41000e+09  1025054    0.03%
 264097  9842    infeasible         1.41044e+09   1.41000e+09  1025054    0.03%
 264098  9841    infeasible         1.41044e+09   1.41000e+09  1025054    0.03%
 264099  9840        cutoff         1.41044e+09   1.41000e+09  1025058    0.03%
 264100  9839    infeasible         1.41044e+09   1.41000e+09  1025058    0.03%
 264101  9838        cutoff         1.41044e+09   1.41000e+09  1025072    0.03%
 264102  9837        cutoff         1.41044e+09   1.41000e+09  1025083    0.03%
Elapsed time = 39.05 sec. (35310.49 ticks, tree = 3.19 MB, solutions = 16)
 289023 10899    infeasible         1.41044e+09   1.41000e+09  1120290    0.03%
 289024 10898        cutoff         1.41044e+09   1.41000e+09  1120294    0.03%
 289025 10897        cutoff         1.41044e+09   1.41000e+09  1120301    0.03%
 289026 10898   1.41000e+09     6   1.41044e+09   1.41000e+09  1120304    0.03%
 289027 10899   1.41000e+09     6   1.41044e+09   1.41000e+09  1120307    0.03%
 289028 10900   1.41000e+09     6   1.41044e+09   1.41000e+09  1120309    0.03%
 289029 10899        cutoff         1.41044e+09   1.41000e+09  1120314    0.03%
 289030 10900   1.41000e+09     6   1.41044e+09   1.41000e+09  1120315    0.03%
 289031 10901   1.41000e+09     6   1.41044e+09   1.41000e+09  1120316    0.03%
 289032 10902   1.41000e+09     8   1.41044e+09   1.41000e+09  1120318    0.03%
Elapsed time = 43.25 sec. (39126.81 ticks, tree = 3.49 MB, solutions = 16)
 313921 12234        cutoff         1.41044e+09   1.41000e+09  1211535    0.03%
 313922 12233        cutoff         1.41044e+09   1.41000e+09  1211543    0.03%
 313923 12232        cutoff         1.41044e+09   1.41000e+09  1211544    0.03%
 313924 12231        cutoff         1.41044e+09   1.41000e+09  1211556    0.03%
 313925 12230        cutoff         1.41044e+09   1.41000e+09  1211565    0.03%
 313926 12229    infeasible         1.41044e+09   1.41000e+09  1211565    0.03%
 313927 12228    infeasible         1.41044e+09   1.41000e+09  1211565    0.03%
 313928 12229   1.41000e+09     7   1.41044e+09   1.41000e+09  1211566    0.03%
 313929 12230   1.41000e+09     6   1.41044e+09   1.41000e+09  1211568    0.03%
 313930 12229        cutoff         1.41044e+09   1.41000e+09  1211575    0.03%
Elapsed time = 47.40 sec. (42943.63 ticks, tree = 3.85 MB, solutions = 16)
 342196 11623        cutoff         1.41044e+09   1.41000e+09  1320259    0.03%
 342197 11622        cutoff         1.41044e+09   1.41000e+09  1320266    0.03%
 342198 11623   1.41000e+09     7   1.41044e+09   1.41000e+09  1320270    0.03%
 342199 11624   1.41000e+09     6   1.41044e+09   1.41000e+09  1320271    0.03%
 342200 11625   1.41000e+09     8   1.41044e+09   1.41000e+09  1320273    0.03%
 342201 11626   1.41000e+09     6   1.41044e+09   1.41000e+09  1320274    0.03%
 342202 11627   1.41000e+09     6   1.41044e+09   1.41000e+09  1320275    0.03%
 342203 11628   1.41000e+09     8   1.41044e+09   1.41000e+09  1320278    0.03%
 342204 11629   1.41000e+09    10   1.41044e+09   1.41000e+09  1320280    0.03%
 342205 11630   1.41000e+09     6   1.41044e+09   1.41000e+09  1320281    0.03%
Elapsed time = 51.63 sec. (46759.12 ticks, tree = 3.69 MB, solutions = 16)
 369240 11375        cutoff         1.41044e+09   1.41000e+09  1431030    0.03%
 369241 11374    infeasible         1.41044e+09   1.41000e+09  1431030    0.03%
 369242 11373        cutoff         1.41044e+09   1.41000e+09  1431046    0.03%
 369243 11372        cutoff         1.41044e+09   1.41000e+09  1431057    0.03%
 369244 11373   1.41000e+09     6   1.41044e+09   1.41000e+09  1431061    0.03%
 369245 11372    infeasible         1.41044e+09   1.41000e+09  1431061    0.03%
 369246 11371        cutoff         1.41044e+09   1.41000e+09  1431065    0.03%
 369247 11372   1.41000e+09     7   1.41044e+09   1.41000e+09  1431070    0.03%
 369248 11371        cutoff         1.41044e+09   1.41000e+09  1431074    0.03%
 369249 11370        cutoff         1.41044e+09   1.41000e+09  1431082    0.03%
Elapsed time = 55.87 sec. (50575.55 ticks, tree = 3.62 MB, solutions = 16)
 398495 11232        cutoff         1.41044e+09   1.41000e+09  1549651    0.03%
 398496 11231        cutoff         1.41044e+09   1.41000e+09  1549655    0.03%
 398497 11230        cutoff         1.41044e+09   1.41000e+09  1549659    0.03%
 398498 11229    infeasible         1.41044e+09   1.41000e+09  1549659    0.03%
 398499 11228        cutoff         1.41044e+09   1.41000e+09  1549666    0.03%
 398500 11229   1.41000e+09     8   1.41044e+09   1.41000e+09  1549671    0.03%
 398501 11230   1.41000e+09     8   1.41044e+09   1.41000e+09  1549677    0.03%
 398502 11231   1.41000e+09     8   1.41044e+09   1.41000e+09  1549679    0.03%
 398503 11232   1.41003e+09    13   1.41044e+09   1.41000e+09  1549680    0.03%
 398504 11233   1.41003e+09    13   1.41044e+09   1.41000e+09  1549681    0.03%
Elapsed time = 60.06 sec. (54391.59 ticks, tree = 3.58 MB, solutions = 16)
 428345 10688   1.41000e+09     6   1.41044e+09   1.41000e+09  1671652    0.03%
 428346 10689   1.41000e+09     6   1.41044e+09   1.41000e+09  1671654    0.03%
 428347 10690   1.41000e+09     6   1.41044e+09   1.41000e+09  1671655    0.03%
 428348 10691   1.41000e+09     6   1.41044e+09   1.41000e+09  1671656    0.03%
 428349 10692   1.41000e+09     5   1.41044e+09   1.41000e+09  1671657    0.03%
 428350 10693   1.41000e+09     6   1.41044e+09   1.41000e+09  1671658    0.03%
 428351 10694   1.41000e+09     6   1.41044e+09   1.41000e+09  1671659    0.03%
 428352 10695   1.41000e+09     6   1.41044e+09   1.41000e+09  1671660    0.03%
 428353 10696   1.41000e+09     8   1.41044e+09   1.41000e+09  1671662    0.03%
 428354 10697   1.41000e+09     8   1.41044e+09   1.41000e+09  1671667    0.03%
Elapsed time = 64.28 sec. (58207.19 ticks, tree = 3.44 MB, solutions = 16)
 453523 11388   1.41000e+09     8   1.41044e+09   1.41000e+09  1773795    0.03%
 453524 11389   1.41000e+09     8   1.41044e+09   1.41000e+09  1773800    0.03%
 453525 11390   1.41000e+09     8   1.41044e+09   1.41000e+09  1773802    0.03%
 453526 11389        cutoff         1.41044e+09   1.41000e+09  1773825    0.03%
 453527 11390   1.41000e+09     7   1.41044e+09   1.41000e+09  1773826    0.03%
 453528 11391   1.41000e+09     7   1.41044e+09   1.41000e+09  1773827    0.03%
 453529 11392   1.41000e+09     8   1.41044e+09   1.41000e+09  1773829    0.03%
 453530 11393   1.41000e+09     5   1.41044e+09   1.41000e+09  1773832    0.03%
 453531 11394   1.41000e+09     7   1.41044e+09   1.41000e+09  1773835    0.03%
 453532 11393        cutoff         1.41044e+09   1.41000e+09  1773841    0.03%
Elapsed time = 68.56 sec. (62023.06 ticks, tree = 3.64 MB, solutions = 16)
 479519 11644   1.41000e+09     8   1.41044e+09   1.41000e+09  1879654    0.03%
 479520 11645   1.41000e+09     9   1.41044e+09   1.41000e+09  1879656    0.03%
 479521 11646   1.41000e+09     6   1.41044e+09   1.41000e+09  1879657    0.03%
 479522 11645        cutoff         1.41044e+09   1.41000e+09  1879661    0.03%
 479523 11644        cutoff         1.41044e+09   1.41000e+09  1879669    0.03%
 479524 11645   1.41000e+09     8   1.41044e+09   1.41000e+09  1879671    0.03%
 479525 11646   1.41000e+09     6   1.41044e+09   1.41000e+09  1879672    0.03%
 479526 11647   1.41000e+09     6   1.41044e+09   1.41000e+09  1879673    0.03%
 479527 11648   1.41000e+09     8   1.41044e+09   1.41000e+09  1879678    0.03%
 479528 11649   1.41000e+09     6   1.41044e+09   1.41000e+09  1879680    0.03%
Elapsed time = 72.81 sec. (65838.52 ticks, tree = 3.72 MB, solutions = 16)
 507972 12399   1.41000e+09     6   1.41044e+09   1.41000e+09  1999655    0.03%
 507973 12400   1.41000e+09     6   1.41044e+09   1.41000e+09  1999657    0.03%
 507974 12401   1.41000e+09     5   1.41044e+09   1.41000e+09  1999666    0.03%
 507975 12400    infeasible         1.41044e+09   1.41000e+09  1999668    0.03%
 507976 12401   1.41000e+09     6   1.41044e+09   1.41000e+09  1999678    0.03%
 507977 12401   1.41000e+09     6   1.41044e+09   1.41000e+09  1999681    0.03%
 507978 12402   1.41000e+09     6   1.41044e+09   1.41000e+09  1999685    0.03%
 507979 12403   1.41000e+09     6   1.41044e+09   1.41000e+09  1999687    0.03%
 507980 12402        cutoff         1.41044e+09   1.41000e+09  1999691    0.03%
 507981 12401    infeasible         1.41044e+09   1.41000e+09  1999697    0.03%
Elapsed time = 77.02 sec. (69654.00 ticks, tree = 3.91 MB, solutions = 16)
 538096 11683        cutoff         1.41044e+09   1.41000e+09  2139291    0.03%
 538097 11684   1.41000e+09     6   1.41044e+09   1.41000e+09  2139295    0.03%
 538098 11683    infeasible         1.41044e+09   1.41000e+09  2139295    0.03%
 538099 11684   1.41000e+09     6   1.41044e+09   1.41000e+09  2139296    0.03%
 538100 11683    infeasible         1.41044e+09   1.41000e+09  2139296    0.03%
 538101 11682        cutoff         1.41044e+09   1.41000e+09  2139307    0.03%
 538102 11681    infeasible         1.41044e+09   1.41000e+09  2139307    0.03%
 538103 11680    infeasible         1.41044e+09   1.41000e+09  2139307    0.03%
 538104 11679        cutoff         1.41044e+09   1.41000e+09  2139317    0.03%
 538105 11678        cutoff         1.41044e+09   1.41000e+09  2139337    0.03%
Elapsed time = 81.15 sec. (73469.77 ticks, tree = 3.72 MB, solutions = 16)
 567542 13054        cutoff         1.41044e+09   1.41000e+09  2266067    0.03%
 567543 13055   1.41000e+09     8   1.41044e+09   1.41000e+09  2266068    0.03%
 567544 13056   1.41000e+09     8   1.41044e+09   1.41000e+09  2266073    0.03%
 567545 13057   1.41000e+09     8   1.41044e+09   1.41000e+09  2266074    0.03%
 567546 13058   1.41000e+09     8   1.41044e+09   1.41000e+09  2266075    0.03%
 567547 13059   1.41000e+09     8   1.41044e+09   1.41000e+09  2266076    0.03%
 567548 13060   1.41000e+09     8   1.41044e+09   1.41000e+09  2266077    0.03%
 567549 13061   1.41000e+09     8   1.41044e+09   1.41000e+09  2266078    0.03%
 567550 13062   1.41000e+09     6   1.41044e+09   1.41000e+09  2266080    0.03%
 567551 13063   1.41000e+09     8   1.41044e+09   1.41000e+09  2266081    0.03%
Elapsed time = 85.27 sec. (77285.07 ticks, tree = 4.09 MB, solutions = 16)
 598243 13130        cutoff         1.41044e+09   1.41000e+09  2408627    0.03%
 598244 13131   1.41000e+09     7   1.41044e+09   1.41000e+09  2408628    0.03%
 598245 13132   1.41000e+09     8   1.41044e+09   1.41000e+09  2408631    0.03%
 598246 13133   1.41000e+09     6   1.41044e+09   1.41000e+09  2408633    0.03%
 598247 13134   1.41000e+09     6   1.41044e+09   1.41000e+09  2408634    0.03%
 598248 13135   1.41000e+09     6   1.41044e+09   1.41000e+09  2408635    0.03%
 598249 13136   1.41000e+09     6   1.41044e+09   1.41000e+09  2408636    0.03%
 598250 13137   1.41000e+09     6   1.41044e+09   1.41000e+09  2408637    0.03%
 598251 13138   1.41000e+09     8   1.41044e+09   1.41000e+09  2408639    0.03%
 598252 13138   1.41000e+09     8   1.41044e+09   1.41000e+09  2408644    0.03%
Elapsed time = 89.40 sec. (81100.47 ticks, tree = 4.12 MB, solutions = 16)
 616757 13283        cutoff         1.41044e+09   1.41000e+09  2500598    0.03%
 616758 13282        cutoff         1.41044e+09   1.41000e+09  2500605    0.03%
 616759 13283   1.41000e+09     8   1.41044e+09   1.41000e+09  2500609    0.03%
 616760 13284   1.41000e+09     8   1.41044e+09   1.41000e+09  2500611    0.03%
 616761 13285   1.41000e+09     8   1.41044e+09   1.41000e+09  2500613    0.03%
 616762 13286   1.41000e+09     7   1.41044e+09   1.41000e+09  2500614    0.03%
 616763 13287   1.41000e+09     8   1.41044e+09   1.41000e+09  2500615    0.03%
 616764 13288   1.41000e+09     8   1.41044e+09   1.41000e+09  2500616    0.03%
 616765 13289   1.41000e+09     8   1.41044e+09   1.41000e+09  2500617    0.03%
 616766 13288        cutoff         1.41044e+09   1.41000e+09  2500633    0.03%
Elapsed time = 93.21 sec. (84916.03 ticks, tree = 4.16 MB, solutions = 16)
 645597 13622   1.41000e+09     7   1.41044e+09   1.41000e+09  2625189    0.03%
 645598 13623   1.41000e+09     5   1.41044e+09   1.41000e+09  2625190    0.03%
 645599 13624   1.41000e+09     6   1.41044e+09   1.41000e+09  2625191    0.03%
 645600 13624   1.41000e+09     6   1.41044e+09   1.41000e+09  2625194    0.03%
 645601 13625   1.41000e+09     4   1.41044e+09   1.41000e+09  2625195    0.03%
 645602 13624        cutoff         1.41044e+09   1.41000e+09  2625200    0.03%
 645603 13623        cutoff         1.41044e+09   1.41000e+09  2625219    0.03%
 645604 13622    infeasible         1.41044e+09   1.41000e+09  2625234    0.03%
 645605 13623   1.41000e+09     7   1.41044e+09   1.41000e+09  2625238    0.03%
 645606 13624   1.41000e+09     6   1.41044e+09   1.41000e+09  2625240    0.03%
Elapsed time = 97.28 sec. (88732.38 ticks, tree = 4.26 MB, solutions = 16)

Cover cuts applied:  1
Mixed integer rounding cuts applied:  4

Root node processing (before b&c):
  Real time             =    0.01 sec. (6.53 ticks)
Sequential b&c:
  Real time             =   99.99 sec. (91209.84 ticks)
                          ------------
Total (root+branch&cut) =  100.00 sec. (91216.38 ticks)

Solution pool: 16 solutions saved.

MIP - Time limit exceeded, integer feasible:  Objective =  1.4104425930e+09
Current MIP best bound =  1.4100007540e+09 (gap = 441839, 0.03%)
Solution time =  100.00 sec.  Iterations = 2701959  Nodes = 662787 (13930)
Deterministic time = 91216.38 ticks  (912.16 ticks/sec)


Incumbent solution written to file '/tmp/tmpI2pqLT.cplex.sol'.
